c t pwmc
c file mc2023_track4_053.cnf
p cnf 108 318
c p show 1 2 5 6 10 13 14 17 18 23 26 27 30 32 35 42 44 45 48 49 51 56 57 67 72 73 74 75 76 77 78 82 84 87 98 101 104 105 107 108 0
10 11 0
19 20 21 0
28 30 31 29 0
38 40 41 39 37 0
49 50 51 47 48 0
56 58 61 59 57 60 0
67 68 69 65 66 70 71 0
76 77 80 81 78 75 79 74 0
87 88 90 89 84 83 85 86 0
91 92 99 97 96 94 95 98 93 0
101 104 108 103 105 106 102 107 0
-65 -29 0
-66 -30 0
-67 -31 0
-68 -32 0
-69 -33 0
-70 -34 0
-71 -35 0
-72 -36 0
-101 -56 0
-102 -57 0
-103 -58 0
-104 -59 0
-105 -60 0
-106 -61 0
-107 -62 0
-108 -63 0
-11 -56 0
-12 -57 0
-13 -58 0
-14 -59 0
-15 -60 0
-16 -61 0
-17 -62 0
-18 -63 0
-20 -83 0
-21 -84 0
-22 -85 0
-23 -86 0
-24 -87 0
-25 -88 0
-26 -89 0
-27 -90 0
-101 -29 0
-102 -30 0
-103 -31 0
-104 -32 0
-105 -33 0
-106 -34 0
-107 -35 0
-108 -36 0
-20 -47 0
-21 -48 0
-22 -49 0
-23 -50 0
-24 -51 0
-25 -52 0
-26 -53 0
-27 -54 0
-83 -47 0
-84 -48 0
-85 -49 0
-86 -50 0
-87 -51 0
-88 -52 0
-89 -53 0
-90 -54 0
-83 -2 0
-84 -3 0
-85 -4 0
-86 -5 0
-87 -6 0
-88 -7 0
-89 -8 0
-90 -9 0
-29 -56 0
-30 -57 0
-31 -58 0
-32 -59 0
-33 -60 0
-34 -61 0
-35 -62 0
-36 -63 0
-65 -11 0
-66 -12 0
-67 -13 0
-68 -14 0
-69 -15 0
-70 -16 0
-71 -17 0
-72 -18 0
-74 -20 0
-75 -21 0
-76 -22 0
-77 -23 0
-78 -24 0
-79 -25 0
-80 -26 0
-81 -27 0
-74 -56 0
-75 -57 0
-76 -58 0
-77 -59 0
-78 -60 0
-79 -61 0
-80 -62 0
-81 -63 0
-101 -11 0
-102 -12 0
-103 -13 0
-104 -14 0
-105 -15 0
-106 -16 0
-107 -17 0
-108 -18 0
-65 -83 0
-66 -84 0
-67 -85 0
-68 -86 0
-69 -87 0
-70 -88 0
-71 -89 0
-72 -90 0
-37 -19 0
-38 -20 0
-39 -21 0
-40 -22 0
-41 -23 0
-42 -24 0
-43 -25 0
-44 -26 0
-45 -27 0
-74 -47 0
-75 -48 0
-76 -49 0
-77 -50 0
-78 -51 0
-79 -52 0
-80 -53 0
-81 -54 0
-74 -2 0
-75 -3 0
-76 -4 0
-77 -5 0
-78 -6 0
-79 -7 0
-80 -8 0
-81 -9 0
-29 -83 0
-30 -84 0
-31 -85 0
-32 -86 0
-33 -87 0
-34 -88 0
-35 -89 0
-36 -90 0
-101 -20 0
-102 -21 0
-103 -22 0
-104 -23 0
-105 -24 0
-106 -25 0
-107 -26 0
-108 -27 0
-101 -2 0
-102 -3 0
-103 -4 0
-104 -5 0
-105 -6 0
-106 -7 0
-107 -8 0
-108 -9 0
-83 -56 0
-84 -57 0
-85 -58 0
-86 -59 0
-87 -60 0
-88 -61 0
-89 -62 0
-90 -63 0
-74 -11 0
-75 -12 0
-76 -13 0
-77 -14 0
-78 -15 0
-79 -16 0
-80 -17 0
-81 -18 0
-65 -74 0
-66 -75 0
-67 -76 0
-68 -77 0
-69 -78 0
-70 -79 0
-71 -80 0
-72 -81 0
-65 -20 0
-66 -21 0
-67 -22 0
-68 -23 0
-69 -24 0
-70 -25 0
-71 -26 0
-72 -27 0
-65 -2 0
-66 -3 0
-67 -4 0
-68 -5 0
-69 -6 0
-70 -7 0
-71 -8 0
-72 -9 0
-37 -91 0
-38 -92 0
-39 -93 0
-40 -94 0
-41 -95 0
-42 -96 0
-43 -97 0
-44 -98 0
-45 -99 0
-28 -19 0
-20 -29 0
-21 -30 0
-22 -31 0
-23 -32 0
-24 -33 0
-25 -34 0
-26 -35 0
-27 -36 0
-11 -47 0
-12 -48 0
-13 -49 0
-14 -50 0
-15 -51 0
-16 -52 0
-17 -53 0
-18 -54 0
-65 -101 0
-66 -102 0
-67 -103 0
-68 -104 0
-69 -105 0
-70 -106 0
-71 -107 0
-72 -108 0
-74 -29 0
-75 -30 0
-76 -31 0
-77 -32 0
-78 -33 0
-79 -34 0
-80 -35 0
-81 -36 0
-91 -19 0
-92 -20 0
-93 -21 0
-94 -22 0
-95 -23 0
-96 -24 0
-97 -25 0
-98 -26 0
-99 -27 0
-29 -47 0
-30 -48 0
-31 -49 0
-32 -50 0
-33 -51 0
-34 -52 0
-35 -53 0
-36 -54 0
-83 -11 0
-84 -12 0
-85 -13 0
-86 -14 0
-87 -15 0
-88 -16 0
-89 -17 0
-90 -18 0
-101 -47 0
-102 -48 0
-103 -49 0
-104 -50 0
-105 -51 0
-106 -52 0
-107 -53 0
-108 -54 0
-20 -56 0
-21 -57 0
-22 -58 0
-23 -59 0
-24 -60 0
-25 -61 0
-26 -62 0
-27 -63 0
-56 -2 0
-57 -3 0
-58 -4 0
-59 -5 0
-60 -6 0
-61 -7 0
-62 -8 0
-63 -9 0
-47 -2 0
-48 -3 0
-49 -4 0
-50 -5 0
-51 -6 0
-52 -7 0
-53 -8 0
-54 -9 0
1 0
-82 0
-73 0
-100 0
-64 0
-55 0
-46 0
c p weight 1 0.58814282 0
c p weight -1 0.41185718 0
c p weight 2 0.44840739 0
c p weight -2 0.55159261 0
c p weight 5 0.52616492 0
c p weight -5 0.47383508 0
c p weight 6 0.20726672 0
c p weight -6 0.79273328 0
c p weight 10 0.45191946 0
c p weight -10 0.54808054 0
c p weight 13 0.32748886 0
c p weight -13 0.67251114 0
c p weight 14 0.33704927 0
c p weight -14 0.66295073 0
c p weight 17 0.38334345 0
c p weight -17 0.61665655 0
c p weight 18 0.33046482 0
c p weight -18 0.66953518 0
c p weight 23 0.38247424 0
c p weight -23 0.61752576 0
c p weight 26 0.54151650 0
c p weight -26 0.45848350 0
c p weight 27 0.39512817 0
c p weight -27 0.60487183 0
c p weight 30 0.23357852 0
c p weight -30 0.76642148 0
c p weight 32 0.49714519 0
c p weight -32 0.50285481 0
c p weight 35 0.57609994 0
c p weight -35 0.42390006 0
c p weight 42 0.36712301 0
c p weight -42 0.63287699 0
c p weight 44 0.31702716 0
c p weight -44 0.68297284 0
c p weight 45 0.24774058 0
c p weight -45 0.75225942 0
c p weight 48 0.39428223 0
c p weight -48 0.60571777 0
c p weight 49 0.62491915 0
c p weight -49 0.37508085 0
c p weight 51 0.23156858 0
c p weight -51 0.76843142 0
c p weight 56 0.43379619 0
c p weight -56 0.56620381 0
c p weight 57 0.20840809 0
c p weight -57 0.79159191 0
c p weight 67 0.57394628 0
c p weight -67 0.42605372 0
c p weight 72 0.57011151 0
c p weight -72 0.42988849 0
c p weight 73 0.77062274 0
c p weight -73 0.22937726 0
c p weight 74 0.28996451 0
c p weight -74 0.71003549 0
c p weight 75 0.63114104 0
c p weight -75 0.36885896 0
c p weight 76 0.72903080 0
c p weight -76 0.27096920 0
c p weight 77 0.35246785 0
c p weight -77 0.64753215 0
c p weight 78 0.75945838 0
c p weight -78 0.24054162 0
c p weight 82 0.41661360 0
c p weight -82 0.58338640 0
c p weight 84 0.61823191 0
c p weight -84 0.38176809 0
c p weight 87 0.24778137 0
c p weight -87 0.75221863 0
c p weight 98 0.39166442 0
c p weight -98 0.60833558 0
c p weight 101 0.54716579 0
c p weight -101 0.45283421 0
c p weight 104 0.22056253 0
c p weight -104 0.77943747 0
c p weight 105 0.28924322 0
c p weight -105 0.71075678 0
c p weight 107 0.48659216 0
c p weight -107 0.51340784 0
c p weight 108 0.69304506 0
c p weight -108 0.30695494 0
